# Objective value = 30
y 30
x1 0
r1 0
y1 0
p12 0
q12 0
p13 0
q13 0
p14 0
q14 0
p15 0
q15 0
x2 2
r2 0
y2 0
p23 1
q23 0
p24 0
q24 0
p25 0
q25 0
x3 1
r3 0
y3 0
p34 0
q34 0
p35 0
q35 0
x4 3
r4 0
y4 0
p45 0
q45 0
x5 4
r5 0
y5 0
